-- NJOY input: pu241  mat=9443
-- ign3  temperatures: 293.6 K
-- weight function: lwr (iwt=4)
--
reconr
  20 21 /
  'pu241 reconr' /
  9443 0 /
  0.001 0. /
  0 /
broadr
  20 21 22 /
  9443 1 /
  0.001 /
  293.6 /
  0 /
groupr
  20 22 0 23 /
  9443 3 0 4 1 1 1 /
  'pu241 ign3' /
  293.6 /
  1.0e10 /
  0.10 0.025 820.3e+3 1.4e+6 /
  3 1 'total' /
  3 2 'elastic' /
  3 4 'inelastic' /
  3 16 '(n,2n)' /
  3 17 '(n,3n)' /
  3 18 'fission' /
  3 102 'capture' /
  3 51 'mt51' /
  3 52 'mt52' /
  3 53 'mt53' /
  3 54 'mt54' /
  3 55 'mt55' /
  3 56 'mt56' /
  3 57 'mt57' /
  3 58 'mt58' /
  3 59 'mt59' /
  3 60 'mt60' /
  3 61 'mt61' /
  3 62 'mt62' /
  3 63 'mt63' /
  3 64 'mt64' /
  3 65 'mt65' /
  3 91 'mt91' /
  3 452 'nubar' /
  6 2 'elastic matrix' /
  6 51 'mt51 matrix' /
  6 52 'mt52 matrix' /
  6 53 'mt53 matrix' /
  6 54 'mt54 matrix' /
  6 55 'mt55 matrix' /
  6 56 'mt56 matrix' /
  6 57 'mt57 matrix' /
  6 58 'mt58 matrix' /
  6 59 'mt59 matrix' /
  6 60 'mt60 matrix' /
  6 61 'mt61 matrix' /
  6 62 'mt62 matrix' /
  6 63 'mt63 matrix' /
  6 64 'mt64 matrix' /
  6 65 'mt65 matrix' /
  6 91 'mt91 matrix' /
  6 16 '(n,2n) matrix' /
  6 18 'fission matrix' /
  0 /
  0 /
stop
