-- NJOY input: i135  mat=5349
-- ign3  temperatures: 293.6 K
-- weight function: lwr (iwt=4)
--
reconr
  20 21 /
  'i135 reconr' /
  5349 0 /
  0.001 0. /
  0 /
broadr
  20 21 22 /
  5349 1 /
  0.001 /
  293.6 /
  0 /
groupr
  20 22 0 23 /
  5349 3 0 4 1 1 1 /
  'i135 ign3' /
  293.6 /
  1.0e10 /
  0.10 0.025 820.3e+3 1.4e+6 /
  3 1 'total' /
  3 2 'elastic' /
  3 4 'inelastic' /
  3 16 '(n,2n)' /
  3 17 '(n,3n)' /
  3 102 'capture' /
  3 103 '(n,p)' /
  3 107 '(n,a)' /
  3 51 'mt51' /
  3 52 'mt52' /
  3 91 'mt91' /
  6 2 'elastic matrix' /
  6 51 'mt51 matrix' /
  6 52 'mt52 matrix' /
  6 91 'mt91 matrix' /
  6 16 '(n,2n) matrix' /
  0 /
  0 /
stop
